Version identifier: 12.10.0.0 | 2019-11-26 | 843d4de
CPXPARAM_WorkMem                                 16384
CPXPARAM_MIP_Limits_TreeMemory                   24576
Tried aggregator 2 times.
MIP Presolve eliminated 23 rows and 0 columns.
MIP Presolve added 44 rows and 0 columns.
Aggregator did 60 substitutions.
Reduced MIP has 103 rows, 100 columns, and 392 nonzeros.
Reduced MIP has 100 binaries, 0 generals, 0 SOSs, and 0 indicators.
Presolve time = 0,00 sec. (0,80 ticks)
Found incumbent of value 257,000000 after 0,00 sec. (0,92 ticks)
Probing time = 0,00 sec. (0,26 ticks)
Tried aggregator 1 time.
Detecting symmetries...
Reduced MIP has 103 rows, 100 columns, and 392 nonzeros.
Reduced MIP has 100 binaries, 0 generals, 0 SOSs, and 0 indicators.
Presolve time = 0,00 sec. (0,30 ticks)
Probing time = 0,00 sec. (0,26 ticks)
Clique table members: 346.
MIP emphasis: balance optimality and feasibility.
MIP search method: dynamic search.
Parallel mode: deterministic, using up to 16 threads.
Root relaxation solution time = 0,00 sec. (0,32 ticks)

        Nodes                                         Cuts/
   Node  Left     Objective  IInf  Best Integer    Best Bound    ItCnt     Gap

*     0+    0                          257,0000        0,0000           100,00%
*     0+    0                          250,0000        0,0000           100,00%
*     0+    0                          240,0000        0,0000           100,00%
*     0+    0                          236,0000        0,0000           100,00%
*     0+    0                          232,0000        0,0000           100,00%
      0     0      135,0000    84      232,0000      135,0000       54   41,81%
      0     0      135,0000    84      232,0000     Cuts: 127       94   41,81%
      0     0      136,0648    84      232,0000     Cuts: 125      143   41,35%
*     0+    0                          229,0000      136,0648            40,58%
      0     0      136,8075    84      229,0000     Cuts: 125      159   40,26%
      0     0      137,4601    84      229,0000      Fract: 6      178   39,97%
*     0+    0                          223,0000      137,4601            38,36%
      0     0      137,4971    84      223,0000      Cuts: 60      182   38,34%
Detecting symmetries...
      0     0      137,5797    84      223,0000      Fract: 5      188   38,31%
*     0+    0                          220,0000      137,5797            37,46%
*     0+    0                          213,0000      137,5797            35,41%
*     0+    0                          212,0000      137,5797            35,10%
      0     0        cutoff            212,0000      212,0000      188    0,00%
Elapsed time = 0,06 sec. (22,84 ticks, tree = 0,01 MB, solutions = 10)

Clique cuts applied:  18
Cover cuts applied:  30
Flow cuts applied:  3
Mixed integer rounding cuts applied:  18
Zero-half cuts applied:  1
Gomory fractional cuts applied:  3

Root node processing (before b&c):
  Real time             =    0,07 sec. (22,86 ticks)
Parallel b&c, 16 threads:
  Real time             =    0,00 sec. (0,00 ticks)
  Sync time (average)   =    0,00 sec.
  Wait time (average)   =    0,00 sec.
                          ------------
Total (root+branch&cut) =    0,07 sec. (22,86 ticks)
